%-----------------------------------------------------------------------------%
% Dual Arm Multi Capacity Multi Tool Scheduling / Routing
% Assembly Configuration
% Auto Generated by python script, authored by Johan Ludde Wessen 
%-----------------------------------------------------------------------------%


task_durations = [|29, 28, 34, 21, 26, 26, 54, 49, 53, 55, 50, 50, 27, 28, 24, 30,  7,  6,  7,  7,  7
                  |24, 30, 27, 24, 33, 30, 55, 51, 56, 47, 46, 44, 26, 26, 27, 25,  6,  5,  7,  8,  7
                  |];


TRAY_TASKS = 1..4;
CAMERA_TASKS = 13..16;
OUTPUT_TASKS = { 12 };


empty_gripper_tasks = 17..21;


gripper_pick_tasks_orders = [|5, 11, -1
|6, 12, -1
|];

suction_pick_tasks_orders = [|1, 13, 7, -1
|2, 14, 8, -1
|3, 15, 9, -1
|4, 16, 10, -1
|];

fixture_task_orders = [|7, 17, 8, 18, 5, -1, -1, -1
|9, 19, 10, 20, 11, 21, 6, -1
|];

